proyfinal/src/viki/013/experimentInOfficeAgust.take6.output/432e0ba5-c083-4e47-a24b-748f83786eb4.als.out
Reading from standard input... Use '--help' for help.
============================[ Problem Statistics ]=============================
|                                                                             |
|  Number of variables:         87638                                         |
|  Number of clauses:          161767                                         |
|  Parse time:                   0.04 s                                       |
|                                                                             |
============================[ Search Statistics ]==============================
| Conflicts |          ORIGINAL         |          LEARNT          | Progress |
|           |    Vars  Clauses Literals |    Limit  Clauses Lit/Cl |          |
===============================================================================
|       100 |   62375   105155   262719 |    38556      100      7 | 28.827 % |
|       250 |   62375   105155   262719 |    42412      250     21 | 28.827 % |
|       475 |   62375   105155   262719 |    46653      475     44 | 28.827 % |
|       812 |   62375   105155   262719 |    51319      812     80 | 28.827 % |
|      1318 |   62374   105111   262629 |    56451     1313     72 | 28.828 % |
|      2077 |   62374   105111   262629 |    62096     2072     84 | 28.828 % |
|      3216 |   62374   105111   262629 |    68305     3211     79 | 28.828 % |
|      4924 |   62373   105111   262629 |    75136     4918     80 | 28.829 % |
|      7486 |   48944    65967   166110 |    82649     7303     68 | 44.152 % |
|     11330 |   48773    65018   163864 |    90914    10398     61 | 44.347 % |
===============================================================================
restarts              : 59
conflicts             : 13106          (8111 /sec)
decisions             : 42810          (0.00 % random) (26493 /sec)
propagations          : 16992253       (10515574 /sec)
conflict literals     : 752409         (44.88 % deleted)
Memory used           : 31.93 MB
CPU time              : 1.61591 s

UNSATISFIABLE
